# Objective value = 2.9656371056643718e+02
x[0] 1
x[1] 1
x[2] 1
x[3] 0
x[4] 0
x[5] 0
x[6] 0
x[7] 0
x[8] 1
x[9] 0
x[10] 1
x[11] 0
x[12] 1
x[13] 0
x[14] 1
x[15] 1
x[16] 1
x[17] 0
x[18] 0
x[19] 0
x[20] 1
x[21] 0
x[22] 0
x[23] 1
x[24] 0
x[25] 0
x[26] 0
x[27] 1
x[28] 1
x[29] 1
x[30] 0
x[31] 1
x[32] 0
x[33] 0
x[34] 1
x[35] 1
x[36] 0
x[37] 0
x[38] 0
x[39] 1
x[40] 0
x[41] 0
x[42] 1
x[43] 0
x[44] 1
x[45] 0
x[46] 0
x[47] 0
x[48] 1
x[49] 0
x[50] 0
x[51] 1
x[52] 1
x[53] 0
x[54] 0
x[55] 0
x[56] 1
x[57] 0
x[58] 0
x[59] 0
x[60] 1
x[61] 1
x[62] 0
x[63] 1
x[64] 1
x[65] 1
x[66] 0
x[67] 0
x[68] 1
x[69] 1
x[70] 0
x[71] 0
x[72] 0
x[73] 0
x[74] 0
x[75] 0
x[76] 0
x[77] 1
x[78] 0
x[79] 0
x[80] 1
x[81] 0
x[82] 0
x[83] 1
x[84] 0
x[85] 1
x[86] 0
x[87] 0
x[88] 0
x[89] 0
x[90] 1
x[91] 1
x[92] 0
x[93] 1
x[94] 1
x[95] 1
x[96] 1
x[97] 0
x[98] 0
x[99] 0
x[100] 0
x[101] 1
x[102] 1
x[103] 1
x[104] 0
x[105] 1
x[106] 1
x[107] 1
x[108] 0
x[109] 0
x[110] 0
x[111] 1
x[112] 1
x[113] 0
x[114] 1
x[115] 1
x[116] 0
x[117] 1
x[118] 1
x[119] 0
x[120] 1
x[121] 0
x[122] 1
x[123] 0
x[124] 1
x[125] 0
x[126] 0
x[127] 1
x[128] 0
x[129] 1
x[130] 1
x[131] 0
x[132] 1
x[133] 0
x[134] 0
x[135] 0
x[136] 1
x[137] 1
x[138] 0
x[139] 0
x[140] 0
x[141] 1
x[142] 1
x[143] 1
x[144] 1
x[145] 1
x[146] 0
x[147] 1
x[148] 1
x[149] 0
x[150] 0
x[151] 1
x[152] 0
x[153] 1
x[154] 0
x[155] 1
x[156] 0
x[157] 1
x[158] 0
x[159] 1
x[160] 0
x[161] 0
x[162] 0
x[163] 0
x[164] 1
x[165] 1
x[166] 0
x[167] 0
x[168] 0
x[169] 1
x[170] 0
x[171] 0
x[172] 0
x[173] 1
x[174] 1
x[175] 1
x[176] 1
x[177] 0
x[178] 1
x[179] 1
x[180] 0
x[181] 0
x[182] 0
x[183] 0
x[184] 1
x[185] 0
x[186] 1
x[187] 1
x[188] 0
x[189] 1
x[190] 1
x[191] 0
x[192] 1
x[193] 1
x[194] 1
x[195] 0
x[196] 0
x[197] 1
x[198] 1
x[199] 1
x[200] 0
x[201] 0
x[202] 1
x[203] 0
x[204] 1
x[205] 0
x[206] 0
x[207] 0
x[208] 0
x[209] 1
x[210] 0
x[211] 0
x[212] 0
x[213] 1
x[214] 0
x[215] 0
x[216] 1
x[217] 0
x[218] 0
x[219] 1
x[220] 1
x[221] 1
x[222] 0
x[223] 0
x[224] 1
x[225] 0
x[226] 1
x[227] 1
x[228] 0
x[229] 0
x[230] 0
x[231] 0
x[232] 0
x[233] 1
x[234] 0
x[235] 0
x[236] 0
x[237] 0
x[238] 0
x[239] 1
x[240] 1
x[241] 0
x[242] 0
x[243] 1
x[244] 0
x[245] 0
x[246] 0
x[247] 0
x[248] 0
x[249] 1
x[250] 1
x[251] 1
x[252] 0
x[253] 1
x[254] 0
x[255] 1
x[256] 1
x[257] 1
x[258] 0
x[259] 0
x[260] 0
x[261] 0
x[262] 0
x[263] 0
x[264] 1
x[265] 0
x[266] 1
x[267] 0
x[268] 0
x[269] 1
x[270] 0
x[271] 1
x[272] 0
x[273] 1
x[274] 1
x[275] 0
x[276] 1
x[277] 1
x[278] 1
x[279] 1
x[280] 0
x[281] 1
x[282] 1
x[283] 1
x[284] 1
x[285] 1
x[286] 1
x[287] 0
x[288] 0
x[289] 1
x[290] 1
x[291] 0
x[292] 1
x[293] 0
x[294] 0
x[295] 0
x[296] 0
x[297] 1
x[298] 1
x[299] 0
x[300] 1
x[301] 1
x[302] 1
x[303] 1
x[304] 0
x[305] 0
x[306] 1
x[307] 1
x[308] 1
x[309] 0
x[310] 0
x[311] 1
x[312] 0
x[313] 0
x[314] 0
x[315] 1
x[316] 1
x[317] 1
x[318] 0
x[319] 1
x[320] 0
x[321] 0
x[322] 0
x[323] 0
x[324] 1
x[325] 0
x[326] 0
x[327] 0
x[328] 1
x[329] 1
x[330] 1
x[331] 0
x[332] 0
x[333] 1
x[334] 0
x[335] 0
x[336] 1
x[337] 1
x[338] 0
x[339] 1
x[340] 0
x[341] 1
x[342] 1
x[343] 0
x[344] 0
x[345] 1
x[346] 1
x[347] 0
x[348] 1
x[349] 1
x[350] 0
x[351] 0
x[352] 0
x[353] 0
x[354] 1
x[355] 0
x[356] 0
x[357] 0
x[358] 1
x[359] 0
x[360] 1
x[361] 0
x[362] 1
x[363] 1
x[364] 0
x[365] 0
x[366] 0
x[367] 0
x[368] 0
x[369] 0
x[370] 1
x[371] 1
x[372] 0
x[373] 0
x[374] 0
x[375] 1
x[376] 1
x[377] 0
x[378] 0
x[379] 1
x[380] 0
x[381] 0
x[382] 0
x[383] 1
x[384] 0
x[385] 1
x[386] 0
x[387] 0
x[388] 1
x[389] 1
x[390] 0
x[391] 0
x[392] 0
x[393] 0
x[394] 0
x[395] 1
x[396] 0
x[397] 0
x[398] 0
x[399] 0
x[400] 1
x[401] 1
x[402] 1
x[403] 0
x[404] 0
x[405] 0
x[406] 1
x[407] 0
x[408] 0
x[409] 0
x[410] 1
x[411] 1
x[412] 1
x[413] 1
x[414] 0
x[415] 0
x[416] 1
x[417] 1
x[418] 0
x[419] 0
x[420] 0
x[421] 0
x[422] 1
x[423] 1
x[424] 1
x[425] 0
x[426] 0
x[427] 0
x[428] 0
x[429] 0
x[430] 0
x[431] 0
x[432] 1
x[433] 0
x[434] 1
x[435] 1
x[436] 0
x[437] 1
x[438] 1
x[439] 1
x[440] 1
x[441] 0
x[442] 1
x[443] 1
x[444] 1
x[445] 0
x[446] 1
x[447] 0
x[448] 1
x[449] 1
x[450] 0
x[451] 0
x[452] 0
x[453] 0
x[454] 0
x[455] 0
x[456] 1
x[457] 1
x[458] 0
x[459] 1
x[460] 1
x[461] 1
x[462] 1
x[463] 0
x[464] 0
x[465] 0
x[466] 0
x[467] 0
x[468] 1
x[469] 0
x[470] 0
x[471] 0
x[472] 1
x[473] 0
x[474] 1
x[475] 1
x[476] 0
x[477] 1
x[478] 0
x[479] 1
x[480] 1
x[481] 1
x[482] 0
x[483] 0
x[484] 0
x[485] 1
x[486] 1
x[487] 0
x[488] 1
x[489] 1
x[490] 1
x[491] 0
x[492] 0
x[493] 0
x[494] 0
x[495] 0
x[496] 1
x[497] 1
x[498] 1
x[499] 0
x[500] 0
x[501] 1
x[502] 0
x[503] 1
x[504] 0
x[505] 1
x[506] 0
x[507] 0
x[508] 1
x[509] 0
x[510] 1
x[511] 0
x[512] 0
x[513] 1
x[514] 0
x[515] 0
x[516] 0
x[517] 0
x[518] 1
x[519] 0
x[520] 0
x[521] 0
x[522] 0
x[523] 0
x[524] 1
x[525] 1
x[526] 0
x[527] 1
x[528] 1
x[529] 1
x[530] 0
x[531] 1
x[532] 0
x[533] 0
x[534] 0
x[535] 0
x[536] 1
x[537] 0
x[538] 1
x[539] 0
x[540] 1
x[541] 0
x[542] 0
x[543] 0
x[544] 1
x[545] 1
x[546] 0
x[547] 0
x[548] 0
x[549] 1
x[550] 1
x[551] 1
x[552] 0
x[553] 1
x[554] 1
x[555] 1
x[556] 1
x[557] 1
x[558] 1
x[559] 1
x[560] 1
x[561] 1
x[562] 1
x[563] 1
x[564] 0
x[565] 1
x[566] 0
x[567] 1
x[568] 0
x[569] 0
x[570] 1
x[571] 1
x[572] 0
x[573] 0
x[574] 0
x[575] 1
x[576] 0
x[577] 1
x[578] 1
x[579] 0
x[580] 1
x[581] 1
x[582] 1
x[583] 0
x[584] 1
x[585] 1
x[586] 0
x[587] 0
x[588] 0
x[589] 1
x[590] 1
x[591] 0
x[592] 0
x[593] 0
x[594] 0
x[595] 1
x[596] 0
x[597] 1
x[598] 0
x[599] 0
x[600] 0
x[601] 1
x[602] 0
x[603] 1
x[604] 1
x[605] 0
x[606] 0
x[607] 0
x[608] 0
x[609] 1
x[610] 0
x[611] 1
x[612] 1
x[613] 0
x[614] 0
x[615] 0
x[616] 1
x[617] 0
x[618] 1
x[619] 0
x[620] 1
x[621] 0
x[622] 1
x[623] 1
x[624] 1
x[625] 0
x[626] 1
x[627] 1
x[628] 0
x[629] 1
x[630] 0
x[631] 1
x[632] 1
x[633] 0
x[634] 0
x[635] 0
x[636] 1
x[637] 1
x[638] 1
x[639] 1
x[640] 0
x[641] 1
x[642] 0
x[643] 0
x[644] 1
x[645] 1
x[646] 1
x[647] 1
x[648] 0
x[649] 0
x[650] 0
x[651] 1
x[652] 0
x[653] 0
x[654] 0
x[655] 0
x[656] 0
x[657] 0
x[658] 1
x[659] 0
x[660] 1
x[661] 1
x[662] 1
x[663] 0
x[664] 1
x[665] 1
x[666] 0
x[667] 1
x[668] 0
x[669] 0
x[670] 1
x[671] 0
x[672] 0
x[673] 1
x[674] 1
x[675] 0
x[676] 0
x[677] 1
x[678] 1
x[679] 1
x[680] 1
x[681] 1
x[682] 0
x[683] 0
x[684] 0
x[685] 1
x[686] 0
x[687] 0
x[688] 0
x[689] 0
x[690] 1
x[691] 0
x[692] 0
x[693] 1
x[694] 1
x[695] 0
x[696] 1
x[697] 0
x[698] 1
x[699] 0
x[700] 0
x[701] 0
x[702] 1
x[703] 1
x[704] 1
x[705] 1
x[706] 0
x[707] 1
x[708] 1
x[709] 1
x[710] 1
x[711] 0
x[712] 0
x[713] 0
x[714] 0
x[715] 0
x[716] 1
x[717] 1
x[718] 0
x[719] 1
x[720] 0
x[721] 0
x[722] 1
x[723] 0
x[724] 1
x[725] 1
x[726] 1
x[727] 0
x[728] 1
x[729] 0
x[730] 1
x[731] 0
x[732] 0
x[733] 0
x[734] 1
x[735] 0
x[736] 0
x[737] 0
x[738] 1
x[739] 0
x[740] 0
x[741] 1
x[742] 1
x[743] 0
x[744] 0
x[745] 1
x[746] 0
x[747] 0
x[748] 0
x[749] 1
x[750] 0
x[751] 0
x[752] 0
x[753] 0
x[754] 1
x[755] 1
x[756] 1
x[757] 1
x[758] 0
x[759] 1
x[760] 1
x[761] 1
x[762] 1
x[763] 1
x[764] 1
x[765] 1
x[766] 1
x[767] 0
x[768] 1
x[769] 1
x[770] 1
x[771] 0
x[772] 0
x[773] 0
x[774] 1
x[775] 1
x[776] 1
x[777] 1
x[778] 1
x[779] 1
x[780] 1
x[781] 0
x[782] 1
x[783] 0
x[784] 1
x[785] 1
x[786] 1
x[787] 1
x[788] 0
x[789] 0
x[790] 1
x[791] 0
x[792] 0
x[793] 0
x[794] 0
x[795] 1
x[796] 0
x[797] 0
x[798] 0
x[799] 1
x[800] 0
x[801] 1
x[802] 0
x[803] 0
x[804] 1
x[805] 1
x[806] 0
x[807] 1
x[808] 0
x[809] 1
x[810] 1
x[811] 1
x[812] 0
x[813] 1
x[814] 1
x[815] 0
x[816] 0
x[817] 1
x[818] 1
x[819] 0
x[820] 1
x[821] 1
x[822] 1
x[823] 0
x[824] 0
x[825] 0
x[826] 1
x[827] 0
x[828] 0
x[829] 0
x[830] 1
x[831] 1
x[832] 1
x[833] 1
x[834] 0
x[835] 1
x[836] 0
x[837] 0
x[838] 0
x[839] 0
x[840] 0
x[841] 0
x[842] 0
x[843] 0
x[844] 1
x[845] 0
x[846] 0
x[847] 1
x[848] 0
x[849] 0
x[850] 0
x[851] 1
x[852] 0
x[853] 1
x[854] 1
x[855] 1
x[856] 1
x[857] 1
x[858] 0
x[859] 0
x[860] 0
x[861] 1
x[862] 0
x[863] 0
x[864] 1
x[865] 0
x[866] 0
x[867] 1
x[868] 1
x[869] 0
x[870] 1
x[871] 1
x[872] 0
x[873] 1
x[874] 0
x[875] 0
x[876] 1
x[877] 1
x[878] 0
x[879] 0
x[880] 0
x[881] 0
x[882] 0
x[883] 1
x[884] 1
x[885] 0
x[886] 1
x[887] 0
x[888] 0
x[889] 0
x[890] 1
x[891] 1
x[892] 0
x[893] 0
x[894] 1
x[895] 0
x[896] 0
x[897] 0
x[898] 0
x[899] 1
x[900] 0
x[901] 0
x[902] 0
x[903] 0
x[904] 1
x[905] 0
x[906] 1
x[907] 1
x[908] 0
x[909] 1
x[910] 1
x[911] 0
x[912] 1
x[913] 1
x[914] 1
x[915] 1
x[916] 1
x[917] 1
x[918] 0
x[919] 0
x[920] 1
x[921] 1
x[922] 1
x[923] 0
x[924] 0
x[925] 1
x[926] 0
x[927] 0
x[928] 1
x[929] 1
x[930] 0
x[931] 1
x[932] 0
x[933] 0
x[934] 0
x[935] 0
x[936] 0
x[937] 1
x[938] 0
x[939] 0
x[940] 1
x[941] 0
x[942] 0
x[943] 0
x[944] 1
x[945] 1
x[946] 0
x[947] 1
x[948] 0
x[949] 0
x[950] 1
x[951] 0
x[952] 1
x[953] 1
x[954] 1
x[955] 0
x[956] 0
x[957] 0
x[958] 1
x[959] 0
x[960] 0
x[961] 1
x[962] 0
x[963] 0
x[964] 1
x[965] 1
x[966] 0
x[967] 1
x[968] 1
x[969] 0
x[970] 1
x[971] 0
x[972] 1
x[973] 0
x[974] 1
x[975] 0
x[976] 0
x[977] 1
x[978] 0
x[979] 0
x[980] 0
x[981] 0
x[982] 1
x[983] 0
x[984] 1
x[985] 1
x[986] 0
x[987] 0
x[988] 0
x[989] 1
x[990] 1
x[991] 1
x[992] 1
x[993] 1
x[994] 1
x[995] 1
x[996] 1
x[997] 0
x[998] 1
x[999] 1
